38441146416
50121862999
10070403199
86720303896
740903642710
48410247732
68710993906
637218989310
60870300204
55320161557
76303613788
10643067003
67880867129
93062682295
03511431066
212735900910
61622576704
16321616774
77260784735
02862013435
